c Reduced graph for p25_0 generated by Cyril Grelier
p edge 35 117
e 1 3
e 1 6
e 1 14
e 1 15
e 1 18
e 1 21
e 1 32
e 2 4
e 2 9
e 2 10
e 2 15
e 2 17
e 2 23
e 3 6
e 3 14
e 3 20
e 3 22
e 3 23
e 3 32
e 3 34
e 4 5
e 4 15
e 4 17
e 4 19
e 4 23
e 4 27
e 5 19
e 5 20
e 5 27
e 6 12
e 6 14
e 6 30
e 6 32
e 7 11
e 7 14
e 7 21
e 7 27
e 7 29
e 7 31
e 8 10
e 8 12
e 8 18
e 8 24
e 8 25
e 8 28
e 8 29
e 8 31
e 8 33
e 8 35
e 9 10
e 9 13
e 9 22
e 9 35
e 10 12
e 10 18
e 10 25
e 10 31
e 11 14
e 11 24
e 11 26
e 11 30
e 11 31
e 11 34
e 12 18
e 12 25
e 12 30
e 12 31
e 13 16
e 13 17
e 13 22
e 13 25
e 13 35
e 14 31
e 14 32
e 15 17
e 15 18
e 15 21
e 15 23
e 16 17
e 16 19
e 16 25
e 16 33
e 17 23
e 17 25
e 18 21
e 18 25
e 18 31
e 19 27
e 19 33
e 20 22
e 20 23
e 20 34
e 21 27
e 21 29
e 22 23
e 22 34
e 22 35
e 23 34
e 24 26
e 24 28
e 24 29
e 24 30
e 24 33
e 24 34
e 24 35
e 25 31
e 26 30
e 26 32
e 26 34
e 27 29
e 28 29
e 28 33
e 28 35
e 29 33
e 29 35
e 30 34
e 33 35
